(set-info :smt-lib-version 2.6)
(set-logic ALL)
(set-info :source |
Benchmarks used in the followin paper:
Big proof engines as little proof engines: new results on rewrite-based satisfiability procedure
Alessandro Armando, Maria Paola Bonacina, Silvio Ranise, Stephan Schulz. 
PDPAR'05
http://www.ai.dist.unige.it/pdpar05/


|)
(set-info :category "crafted")
(set-info :status unsat)

(declare-sort Element 0)
(declare-fun a_405 () (Seq Element))
(declare-fun a_407 () (Seq Element))
(declare-fun a_409 () (Seq Element))
(declare-fun a_411 () (Seq Element))
(declare-fun a_413 () (Seq Element))
(declare-fun a_415 () (Seq Element))
(declare-fun a_417 () (Seq Element))
(declare-fun a_418 () (Seq Element))
(declare-fun a_420 () (Seq Element))
(declare-fun a_422 () (Seq Element))
(declare-fun a_424 () (Seq Element))
(declare-fun a_425 () (Seq Element))
(declare-fun a_426 () (Seq Element))
(declare-fun a_427 () (Seq Element))
(declare-fun a_429 () (Seq Element))
(declare-fun a_431 () (Seq Element))
(declare-fun a_433 () (Seq Element))
(declare-fun a_435 () (Seq Element))
(declare-fun a_437 () (Seq Element))
(declare-fun a_438 () (Seq Element))
(declare-fun a_440 () (Seq Element))
(declare-fun a_442 () (Seq Element))
(declare-fun a_444 () (Seq Element))
(declare-fun a_445 () (Seq Element))
(declare-fun e_404 () Element)
(declare-fun e_406 () Element)
(declare-fun e_408 () Element)
(declare-fun e_410 () Element)
(declare-fun e_412 () Element)
(declare-fun e_414 () Element)
(declare-fun e_416 () Element)
(declare-fun e_419 () Element)
(declare-fun e_421 () Element)
(declare-fun e_423 () Element)
(declare-fun e_428 () Element)
(declare-fun e_430 () Element)
(declare-fun e_432 () Element)
(declare-fun e_434 () Element)
(declare-fun e_436 () Element)
(declare-fun e_439 () Element)
(declare-fun e_441 () Element)
(declare-fun e_443 () Element)
(declare-fun a1 () (Seq Element))
(declare-fun i1 () Int)
(declare-fun i2 () Int)
(declare-fun i3 () Int)
(declare-fun i4 () Int)
(declare-fun i5 () Int)
(assert (= a_405 (seq.update a1 i1 (seq.unit e_404))))
(assert (= a_407 (seq.update a_405 i4 (seq.unit e_406))))
(assert (= a_409 (seq.update a_407 i3 (seq.unit e_408))))
(assert (= a_411 (seq.update a_409 i1 (seq.unit e_410))))
(assert (= a_413 (seq.update a_411 i1 (seq.unit e_412))))
(assert (= a_415 (seq.update a_413 i4 (seq.unit e_414))))
(assert (= a_417 (seq.update a_415 i2 (seq.unit e_416))))
(assert (= a_418 (seq.update a_417 i2 (seq.unit e_416))))
(assert (= a_420 (seq.update a_418 i3 (seq.unit e_419))))
(assert (= a_422 (seq.update a_420 i5 (seq.unit e_421))))
(assert (= a_424 (seq.update a_422 i4 (seq.unit e_423))))
(assert (= a_425 (seq.update a_424 i4 (seq.unit e_423))))
(assert (= a_426 (seq.update a1 i4 (seq.unit e_406))))
(assert (= a_427 (seq.update a_426 i1 (seq.unit e_404))))
(assert (= a_429 (seq.update a_427 i3 (seq.unit e_428))))
(assert (= a_431 (seq.update a_429 i1 (seq.unit e_430))))
(assert (= a_433 (seq.update a_431 i1 (seq.unit e_432))))
(assert (= a_435 (seq.update a_433 i4 (seq.unit e_434))))
(assert (= a_437 (seq.update a_435 i2 (seq.unit e_436))))
(assert (= a_438 (seq.update a_437 i2 (seq.unit e_436))))
(assert (= a_440 (seq.update a_438 i5 (seq.unit e_439))))
(assert (= a_442 (seq.update a_440 i3 (seq.unit e_441))))
(assert (= a_444 (seq.update a_442 i4 (seq.unit e_443))))
(assert (= a_445 (seq.update a_444 i4 (seq.unit e_443))))
(assert (= e_404 (seq.nth a1 i4)))
(assert (= e_406 (seq.nth a1 i1)))
(assert (= e_408 (seq.nth a_407 i1)))
(assert (= e_410 (seq.nth a_407 i3)))
(assert (= e_412 (seq.nth a_411 i4)))
(assert (= e_414 (seq.nth a_411 i1)))
(assert (= e_416 (seq.nth a_415 i2)))
(assert (= e_419 (seq.nth a_418 i5)))
(assert (= e_421 (seq.nth a_418 i3)))
(assert (= e_423 (seq.nth a_422 i4)))
(assert (= e_428 (seq.nth a_427 i1)))
(assert (= e_430 (seq.nth a_427 i3)))
(assert (= e_432 (seq.nth a_431 i4)))
(assert (= e_434 (seq.nth a_431 i1)))
(assert (= e_436 (seq.nth a_435 i2)))
(assert (= e_439 (seq.nth a_438 i3)))
(assert (= e_441 (seq.nth a_438 i5)))
(assert (= e_443 (seq.nth a_442 i4)))
(assert (not (= a_425 a_445)))
(check-sat)
(exit)
